r = [
0,38,13,22,21,30,38,2,7,14,1,36,11,18,20,12,23,9,9,27,24,5,26,24,28,5,0
];
p = [
0,14,30,14,23,17,20,29,18,23,18,29,16,1,29,27,7,12,6,2,27,14,3,24,30,16,0
];
e = [
0,16,13,5,9,12,2,10,14,13,20,3,4,10,11,11,5,17,12,16,16,15,7,2,1,4,0
];
d = [
0,527,324,393,497,395,466,500,427,447,422,534,354,352,430,493,387,411,432,530,512,345,382,395,496,466,549
];
d_bar = [
0,534,339,400,509,404,476,515,436,459,431,549,362,353,445,507,391,417,435,531,526,352,384,407,511,474,549
];
w = [
0,2.285714286,0.866666667,0.714285714,0.75,1.333333333,0.2,0.666666667,1.555555556,1.083333333,2.222222222,0.2,0.5,10,0.733333333,0.785714286,1.25,2.833333333,4,16,1.142857143,2.142857143,3.5,0.166666667,0.066666667,0.5,0
];
